1 1 2 0
1 1 3 0
1 -1 -4 0
1 -2 -5 0
1 -2 -4 0
1 2 -1 0
1 -6 7 0
1 6 3 0
1 -6 4 0
1 -6 8 0
1 6 -9 0
1 6 -10 0
1 6 11 0
1 12 13 0
1 -12 4 0
1 -12 -14 0
1 12 8 0
1 -12 10 0
1 -4 -15 0
1 4 -16 0
1 -4 17 0
1 -4 12 0
1 -4 18 0
1 4 -19 0
1 4 -1 0
1 -4 -11 0
1 -11 20 0
1 11 16 0
1 -11 -17 0
1 11 -12 0
1 -11 -2 0
1 -11 -4 0
1 -11 21 0
1 -11 -18 0
1 -11 6 0
1 -3 2 0
1 3 -22 0
1 -3 21 0
1 3 -23 0
1 -3 6 0
1 3 1 0
1 10 -15 0
1 -10 -24 0
1 -10 -12 0
1 -10 -2 0
1 -10 -21 0
1 10 -23 0
1 -10 -25 0
1 19 26 0
1 -19 17 0
1 -19 -4 0
1 19 14 0
1 19 -8 0
1 19 11 0
1 -17 -7 0
1 -17 27 0
1 -17 -4 0
1 18 26 0
1 -18 -16 0
1 18 -28 0
1 18 -29 0
1 18 -14 0
1 -18 30 0
1 -16 -7 0
1 16 24 0
1 -16 -29 0
1 16 -4 0
1 16 -8 0
1 -16 30 0
1 8 31 0
1 -8 -32 0
1 8 7 0
1 8 16 0
1 8 -17 0
1 -8 33 0
1 8 -34 0
1 -8 35 0
1 -8 19 0
1 8 -36 0
1 7 32 0
1 7 -17 0
1 7 12 0
1 -7 -37 0
1 -7 -33 0
1 7 -34 0
1 -7 8 0
1 7 -18 0
1 7 19 0
1 7 -6 0
1 14 -17 0
1 14 37 0
1 14 38 0
1 14 -39 0
1 14 -19 0
1 -26 40 0
1 -26 16 0
1 -26 17 0
1 -26 37 0
1 26 -38 0
1 26 21 0
1 26 18 0
1 -26 36 0
1 -34 32 0
1 -34 -28 0
1 -34 -29 0
1 -34 -30 0
1 34 -41 0
1 -32 -29 0
1 32 34 0
1 32 -41 0
1 33 31 0
1 33 7 0
1 33 -29 0
1 33 -38 0
1 33 8 0
1 33 -41 0
1 -31 -7 0
1 31 28 0
1 -31 -29 0
1 -31 -33 0
1 -31 41 0
1 41 32 0
1 41 -29 0
1 41 -42 0
1 41 33 0
1 -41 -18 0
1 41 -43 0
1 -29 -31 0
1 29 32 0
1 29 44 0
1 -29 -42 0
1 29 -33 0
1 29 -41 0
1 29 -45 0
1 30 32 0
1 30 -16 0
1 30 -28 0
1 -30 42 0
1 30 46 0
1 -30 -33 0
1 30 34 0
1 -28 47 0
1 28 -46 0
1 28 -37 0
1 -28 -18 0
1 48 49 0
1 -48 5 0
1 -48 50 0
1 -48 -51 0
1 5 -52 0
1 5 -49 0
1 -5 -2 0
1 5 53 0
1 -5 50 0
1 5 -54 0
1 -5 48 0
1 -9 -52 0
1 9 -49 0
1 9 55 0
1 9 56 0
1 -9 13 0
1 -9 50 0
1 -9 57 0
1 -9 -58 0
1 -13 52 0
1 13 55 0
1 13 -56 0
1 -13 -12 0
1 -13 59 0
1 -13 50 0
1 49 -60 0
1 -49 -24 0
1 49 -27 0
1 -49 13 0
1 -49 -54 0
1 49 61 0
1 49 48 0
1 -54 -60 0
1 54 24 0
1 54 13 0
1 54 62 0
1 54 23 0
1 54 9 0
1 54 48 0
1 52 -63 0
1 52 -60 0
1 -52 -13 0
1 52 -5 0
1 52 -50 0
1 52 -64 0
1 52 65 0
1 -52 -9 0
1 -52 -48 0
1 50 60 0
1 50 13 0
1 50 5 0
1 50 64 0
1 23 55 0
1 -23 56 0
1 23 3 0
1 -23 -66 0
1 23 57 0
1 23 -19 0
1 -23 10 0
1 -27 49 0
1 -27 55 0
1 27 -56 0
1 27 -67 0
1 -27 -3 0
1 27 54 0
1 27 23 0
1 27 10 0
1 -61 -49 0
1 61 24 0
1 61 -55 0
1 -61 56 0
1 -61 68 0
1 61 3 0
1 61 54 0
1 61 -66 0
1 61 -18 0
1 61 57 0
1 61 -10 0
1 -24 -57 0
1 24 -55 0
1 -24 69 0
1 -24 56 0
1 -24 -3 0
1 -24 -61 0
1 -24 70 0
1 24 71 0
1 24 -10 0
1 -56 -72 0
1 -56 57 0
1 -56 -73 0
1 -56 15 0
1 56 -13 0
1 57 72 0
1 57 73 0
1 57 15 0
1 57 -27 0
1 -57 -74 0
1 -57 21 0
1 57 61 0
1 -55 -60 0
1 -55 75 0
1 -55 27 0
1 -55 66 0
1 -55 -23 0
1 55 -9 0
1 -66 -76 0
1 -66 -24 0
1 -66 -55 0
1 -66 27 0
1 -66 -13 0
1 -66 -74 0
1 -66 77 0
1 66 -62 0
1 66 -61 0
1 -66 -78 0
1 -66 -23 0
1 -66 9 0
1 21 -26 0
1 -21 -15 0
1 -21 56 0
1 21 -68 0
1 -21 -4 0
1 21 62 0
1 -21 71 0
1 -15 26 0
1 15 32 0
1 15 -60 0
1 15 -68 0
1 -15 -3 0
1 15 21 0
1 -15 70 0
1 -15 -11 0
1 -38 -20 0
1 38 -26 0
1 38 -73 0
1 -38 56 0
1 -38 -68 0
1 -38 -14 0
1 -38 -77 0
1 38 -57 0
1 -38 70 0
1 38 71 0
1 38 -25 0
1 73 31 0
1 -73 26 0
1 73 -79 0
1 -73 68 0
1 -73 22 0
1 73 -80 0
1 73 70 0
1 68 -15 0
1 68 -46 0
1 -68 -81 0
1 68 37 0
1 68 21 0
1 -68 71 0
1 68 82 0
1 68 83 0
1 -68 36 0
1 -71 -73 0
1 -71 24 0
1 -71 68 0
1 -71 84 0
1 71 46 0
1 71 -37 0
1 71 21 0
1 -71 82 0
1 71 -36 0
1 -79 72 0
1 -79 73 0
1 -79 24 0
1 -79 85 0
1 79 -74 0
1 -79 38 0
1 -79 -21 0
1 79 61 0
1 79 -70 0
1 79 -82 0
1 79 86 0
1 70 -73 0
1 70 -15 0
1 -70 24 0
1 -70 79 0
1 -70 84 0
1 70 87 0
1 -70 74 0
1 70 -21 0
1 70 -61 0
1 70 -82 0
1 70 86 0
1 37 -20 0
1 37 26 0
1 -37 7 0
1 -37 28 0
1 37 -22 0
1 -37 -74 0
1 -37 -14 0
1 37 -80 0
1 -37 8 0
1 -37 -30 0
1 -37 -71 0
1 37 -36 0
1 -36 -72 0
1 -36 20 0
1 -36 -7 0
1 36 -80 0
1 46 20 0
1 46 88 0
1 -46 -28 0
1 -46 -68 0
1 46 22 0
1 46 80 0
1 -46 -39 0
1 46 -35 0
1 -46 71 0
1 -46 83 0
1 83 40 0
1 -83 -22 0
1 83 80 0
1 83 -39 0
1 83 30 0
1 -83 -25 0
1 -83 -71 0
1 -83 86 0
1 -80 -73 0
1 -80 89 0
1 80 42 0
1 -80 46 0
1 80 -37 0
1 80 4 0
1 80 -90 0
1 80 38 0
1 -80 -91 0
1 -80 92 0
1 -80 -45 0
1 -20 -73 0
1 20 -89 0
1 -20 93 0
1 20 -42 0
1 -20 -80 0
1 -20 -45 0
1 -20 -83 0
1 -22 -73 0
1 -22 -89 0
1 -22 -94 0
1 22 84 0
1 22 -3 0
1 -22 37 0
1 22 38 0
1 -22 -91 0
1 22 -95 0
1 22 -25 0
1 22 36 0
1 25 -37 0
1 -25 91 0
1 25 -95 0
1 25 -82 0
1 -25 83 0
1 25 36 0
1 -42 20 0
1 -42 -40 0
1 42 28 0
1 42 -84 0
1 42 -39 0
1 42 -45 0
1 -45 -20 0
1 -45 -40 0
1 45 -88 0
1 45 -29 0
1 -45 -42 0
1 45 -80 0
1 -45 35 0
1 -45 30 0
1 93 -20 0
1 93 40 0
1 -93 -88 0
1 -93 94 0
1 -93 39 0
1 -92 88 0
1 -92 47 0
1 -92 93 0
1 92 80 0
1 -92 -39 0
1 -92 35 0
1 92 -96 0
1 92 95 0
1 35 -88 0
1 35 -97 0
1 35 98 0
1 -35 42 0
1 35 -46 0
1 -35 99 0
1 -35 -8 0
1 35 -100 0
1 -35 -92 0
1 -35 45 0
1 35 -83 0
1 88 -101 0
1 88 -97 0
1 -88 93 0
1 88 -42 0
1 88 46 0
1 -88 99 0
1 -88 100 0
1 88 35 0
1 -88 102 0
1 -88 92 0
1 -88 -45 0
1 88 -83 0
1 39 103 0
1 39 104 0
1 -39 89 0
1 -39 93 0
1 39 -42 0
1 39 46 0
1 39 99 0
1 -39 105 0
1 39 91 0
1 -39 -45 0
1 -39 -83 0
1 -40 -106 0
1 -40 103 0
1 40 -89 0
1 40 99 0
1 -40 39 0
1 40 91 0
1 40 -45 0
1 -98 44 0
1 98 89 0
1 98 -35 0
1 98 43 0
1 102 47 0
1 102 98 0
1 -102 -44 0
1 -102 -35 0
1 102 91 0
1 -102 -43 0
1 97 -88 0
1 97 47 0
1 -97 100 0
1 97 35 0
1 -100 35 0
1 100 96 0
1 100 43 0
1 43 -107 0
1 -43 -98 0
1 -43 108 0
1 -43 102 0
1 43 -41 0
1 43 109 0
1 -44 29 0
1 -44 98 0
1 44 -110 0
1 44 -93 0
1 44 -108 0
1 -44 100 0
1 44 -102 0
1 -44 -43 0
1 -96 107 0
1 96 111 0
1 -96 103 0
1 -96 -97 0
1 96 47 0
1 96 93 0
1 -96 -108 0
1 96 99 0
1 -96 -100 0
1 96 102 0
1 96 112 0
1 96 92 0
1 -47 107 0
1 47 111 0
1 47 -28 0
1 -47 -97 0
1 47 113 0
1 -47 -98 0
1 -47 108 0
1 47 -114 0
1 47 -99 0
1 -47 100 0
1 -47 -92 0
1 51 -53 0
1 51 48 0
1 53 -115 0
1 53 -116 0
1 53 -117 0
1 -53 118 0
1 -58 -119 0
1 -58 115 0
1 58 120 0
1 58 -59 0
1 -58 121 0
1 -58 -117 0
1 -58 118 0
1 58 -9 0
1 -58 122 0
1 58 123 0
1 -59 119 0
1 -59 115 0
1 -59 -13 0
1 59 121 0
1 -59 -124 0
1 59 -117 0
1 59 -122 0
1 59 118 0
1 118 125 0
1 118 69 0
1 118 67 0
1 118 59 0
1 -118 -126 0
1 115 -118 0
1 -115 125 0
1 115 69 0
1 -115 127 0
1 -115 -67 0
1 115 -59 0
1 115 64 0
1 -115 65 0
1 115 -51 0
1 -117 -119 0
1 -117 -128 0
1 117 -129 0
1 117 -130 0
1 -119 131 0
1 -119 -128 0
1 -119 129 0
1 -119 53 0
1 -119 117 0
1 119 126 0
1 119 132 0
1 119 -130 0
1 119 -51 0
1 -65 52 0
1 65 115 0
1 -65 -67 0
1 -65 -121 0
1 -65 50 0
1 -65 -118 0
1 -65 23 0
1 65 122 0
1 67 52 0
1 67 -27 0
1 -67 -120 0
1 67 121 0
1 -67 -133 0
1 -67 122 0
1 64 115 0
1 -64 -120 0
1 64 -121 0
1 64 -134 0
1 64 -135 0
1 -64 -50 0
1 -64 -132 0
1 -64 122 0
1 69 -52 0
1 69 128 0
1 69 120 0
1 -69 -121 0
1 69 -134 0
1 69 135 0
1 -69 50 0
1 69 64 0
1 -69 122 0
1 69 136 0
1 -122 -137 0
1 -122 -69 0
1 122 -67 0
1 122 -59 0
1 -122 -138 0
1 -122 -77 0
1 122 -62 0
1 122 -65 0
1 -122 -58 0
1 -121 76 0
1 121 -59 0
1 121 139 0
1 -121 -138 0
1 121 -62 0
1 -121 -122 0
1 121 64 0
1 121 -65 0
1 -121 58 0
1 133 -137 0
1 -133 140 0
1 133 -67 0
1 -133 59 0
1 133 138 0
1 133 -126 0
1 133 65 0
1 -133 141 0
1 120 137 0
1 -120 125 0
1 -120 69 0
1 -120 -133 0
1 -120 -138 0
1 -120 -142 0
1 120 126 0
1 -62 52 0
1 62 55 0
1 -62 134 0
1 -62 50 0
1 62 66 0
1 -62 -21 0
1 -62 126 0
1 -62 -122 0
1 62 -136 0
1 -60 52 0
1 -60 -15 0
1 60 -55 0
1 60 125 0
1 60 121 0
1 60 -135 0
1 60 54 0
1 60 66 0
1 60 122 0
1 -77 -143 0
1 -77 63 0
1 -77 144 0
1 77 55 0
1 77 121 0
1 77 -135 0
1 -77 -145 0
1 77 66 0
1 -77 142 0
1 -77 122 0
1 -77 136 0
1 -76 143 0
1 76 -73 0
1 76 -63 0
1 -76 144 0
1 76 121 0
1 76 134 0
1 76 -77 0
1 76 66 0
1 143 72 0
1 -143 146 0
1 143 -87 0
1 -143 135 0
1 -143 -77 0
1 143 62 0
1 143 -64 0
1 143 -86 0
1 -135 -143 0
1 135 60 0
1 -135 -74 0
1 -135 77 0
1 135 -64 0
1 135 147 0
1 -135 -86 0
1 -136 -137 0
1 136 76 0
1 -136 69 0
1 -136 148 0
1 -136 -138 0
1 136 -77 0
1 136 64 0
1 -136 -147 0
1 -136 -149 0
1 -134 60 0
1 134 69 0
1 -134 150 0
1 134 148 0
1 -134 138 0
1 134 77 0
1 134 -62 0
1 -134 -64 0
1 -134 -147 0
1 -134 149 0
1 -74 72 0
1 -74 -63 0
1 74 144 0
1 -74 -55 0
1 -74 79 0
1 74 135 0
1 74 -66 0
1 -72 137 0
1 -72 63 0
1 -72 144 0
1 72 55 0
1 -72 -56 0
1 -72 79 0
1 72 -135 0
1 72 -74 0
1 -87 143 0
1 87 63 0
1 87 144 0
1 -87 151 0
1 87 -79 0
1 87 -46 0
1 -87 -148 0
1 -87 -145 0
1 87 -78 0
1 -87 -70 0
1 87 86 0
1 86 143 0
1 -86 -63 0
1 -86 -144 0
1 -86 -75 0
1 86 -135 0
1 86 145 0
1 -86 -152 0
1 -86 83 0
1 -86 149 0
1 144 -72 0
1 -144 -76 0
1 -144 49 0
1 144 153 0
1 144 -94 0
1 -144 77 0
1 144 154 0
1 144 95 0
1 144 -82 0
1 152 -84 0
1 -152 87 0
1 152 -74 0
1 152 -77 0
1 -152 155 0
1 -152 -82 0
1 -152 -86 0
1 -63 72 0
1 63 156 0
1 63 -146 0
1 63 87 0
1 -63 157 0
1 145 -153 0
1 145 146 0
1 -145 74 0
1 145 50 0
1 -145 -158 0
1 145 -77 0
1 145 -154 0
1 -145 -157 0
1 84 144 0
1 84 75 0
1 84 -68 0
1 84 -152 0
1 84 159 0
1 -84 70 0
1 84 -71 0
1 -84 82 0
1 -82 75 0
1 -82 -151 0
1 -82 -79 0
1 -82 71 0
1 -82 -68 0
1 -82 84 0
1 -82 -22 0
1 -82 152 0
1 82 78 0
1 -82 -159 0
1 82 -70 0
1 -82 -147 0
1 82 -25 0
1 94 -160 0
1 -94 75 0
1 -94 151 0
1 -94 93 0
1 94 -85 0
1 -94 -161 0
1 -94 81 0
1 94 -22 0
1 -94 152 0
1 -94 78 0
1 -94 -162 0
1 -94 25 0
1 -95 144 0
1 -95 75 0
1 -95 -94 0
1 -95 152 0
1 -95 160 0
1 -95 157 0
1 -151 159 0
1 151 163 0
1 151 -104 0
1 -151 -89 0
1 -151 -87 0
1 159 -163 0
1 159 104 0
1 159 -89 0
1 -159 -151 0
1 -159 -87 0
1 159 -91 0
1 -159 -164 0
1 159 -95 0
1 -159 -82 0
1 -75 -55 0
1 75 165 0
1 -75 153 0
1 -75 -84 0
1 75 87 0
1 75 -78 0
1 75 154 0
1 75 -95 0
1 78 -163 0
1 78 166 0
1 78 -75 0
1 78 165 0
1 -78 -94 0
1 -78 -84 0
1 78 167 0
1 -78 -66 0
1 78 95 0
1 -89 -159 0
1 89 98 0
1 -89 -151 0
1 89 -81 0
1 -89 22 0
1 89 -80 0
1 89 39 0
1 -89 -91 0
1 89 160 0
1 89 -162 0
1 89 -25 0
1 91 20 0
1 -91 40 0
1 91 89 0
1 -91 -151 0
1 -91 85 0
1 -91 -22 0
1 -91 -80 0
1 91 -39 0
1 -91 -102 0
1 -91 -159 0
1 91 154 0
1 -91 -160 0
1 91 -162 0
1 104 40 0
1 -104 97 0
1 104 -151 0
1 -104 -81 0
1 104 168 0
1 -104 -39 0
1 104 105 0
1 104 162 0
1 -104 -169 0
1 105 40 0
1 105 104 0
1 105 -151 0
1 -105 168 0
1 105 -90 0
1 -105 39 0
1 105 -170 0
1 105 159 0
1 105 -160 0
1 105 162 0
1 105 -169 0
1 -81 -171 0
1 81 -111 0
1 -81 -103 0
1 81 -104 0
1 81 94 0
1 -81 172 0
1 -81 114 0
1 81 99 0
1 81 91 0
1 81 -95 0
1 -81 162 0
1 -162 -171 0
1 162 -111 0
1 -162 -103 0
1 -162 89 0
1 162 94 0
1 -162 172 0
1 -162 -114 0
1 162 -105 0
1 162 -91 0
1 162 -95 0
1 -162 -173 0
1 -85 -171 0
1 85 -163 0
1 85 -104 0
1 -85 79 0
1 85 94 0
1 -85 174 0
1 -85 -172 0
1 85 175 0
1 85 -167 0
1 85 105 0
1 -85 91 0
1 160 -171 0
1 -160 -163 0
1 160 104 0
1 160 89 0
1 160 -85 0
1 -160 -172 0
1 -160 175 0
1 -160 105 0
1 160 -91 0
1 -160 70 0
1 -160 -95 0
1 160 -176 0
1 -103 -88 0
1 -103 163 0
1 103 47 0
1 -103 -81 0
1 103 168 0
1 -103 39 0
1 -103 35 0
1 -99 177 0
1 99 -103 0
1 99 88 0
1 -99 81 0
1 -99 90 0
1 -99 167 0
1 99 35 0
1 99 96 0
1 99 -169 0
1 -111 -177 0
1 -111 -106 0
1 -111 101 0
1 -111 47 0
1 111 -114 0
1 -111 90 0
1 111 162 0
1 -114 -101 0
1 -114 -47 0
1 114 81 0
1 114 168 0
1 -114 175 0
1 -114 -90 0
1 -114 169 0
1 90 111 0
1 -90 103 0
1 -90 -178 0
1 -90 -179 0
1 -90 114 0
1 90 80 0
1 -90 -180 0
1 -90 -181 0
1 177 20 0
1 177 111 0
1 177 104 0
1 177 -178 0
1 177 179 0
1 -177 -90 0
1 177 99 0
1 177 105 0
1 177 -182 0
1 177 181 0
1 -168 -171 0
1 168 111 0
1 -168 -178 0
1 -168 -183 0
1 -168 -184 0
1 -168 -99 0
1 168 105 0
1 -168 -182 0
1 169 185 0
1 169 -111 0
1 169 103 0
1 -169 104 0
1 169 -178 0
1 -169 183 0
1 -169 114 0
1 169 168 0
1 -169 105 0
1 107 177 0
1 107 47 0
1 -107 -108 0
1 107 -186 0
1 -107 -96 0
1 107 -43 0
1 108 107 0
1 -108 -106 0
1 -108 101 0
1 108 47 0
1 -108 -44 0
1 108 90 0
1 108 96 0
1 108 43 0
1 -181 -177 0
1 181 -106 0
1 -181 101 0
1 181 110 0
1 181 -90 0
1 181 -187 0
1 -181 109 0
1 181 188 0
1 179 -177 0
1 -179 -113 0
1 179 90 0
1 179 -187 0
1 179 -186 0
1 -179 109 0
1 186 -101 0
1 186 -189 0
1 -186 -179 0
1 -186 108 0
1 -186 -190 0
1 -186 -191 0
1 186 181 0
1 -101 88 0
1 101 108 0
1 -101 -114 0
1 101 186 0
1 101 -192 0
1 101 -181 0
1 -187 107 0
1 187 193 0
1 -187 -194 0
1 187 179 0
1 187 -108 0
1 -187 39 0
1 -187 195 0
1 187 -190 0
1 -187 196 0
1 187 -181 0
1 106 111 0
1 -106 197 0
1 106 -193 0
1 -106 -179 0
1 106 -114 0
1 106 187 0
1 -106 -181 0
1 192 -101 0
1 192 -113 0
1 -192 -110 0
1 192 186 0
1 -192 109 0
1 -192 182 0
1 198 101 0
1 -198 110 0
1 198 186 0
1 -198 112 0
1 -191 -101 0
1 191 -110 0
1 -191 -112 0
1 -191 109 0
1 189 109 0
1 189 -101 0
1 189 113 0
1 -189 194 0
1 189 186 0
1 109 -189 0
1 109 -110 0
1 109 -198 0
1 -109 43 0
1 -109 -191 0
1 109 181 0
1 -110 109 0
1 -110 199 0
1 110 -44 0
1 -110 200 0
1 -110 179 0
1 110 191 0
1 -110 192 0
1 110 -181 0
1 -112 201 0
1 112 -189 0
1 112 179 0
1 -112 202 0
1 -112 -203 0
1 112 96 0
1 112 -190 0
1 -112 -204 0
1 112 191 0
1 112 181 0
1 -113 201 0
1 -113 -47 0
1 -113 -193 0
1 -113 205 0
1 113 -189 0
1 113 198 0
1 113 179 0
1 -113 -203 0
1 113 192 0
1 206 207 0
1 116 208 0
1 116 209 0
1 -123 -124 0
1 123 209 0
1 123 -210 0
1 -123 207 0
1 123 -211 0
1 -123 58 0
1 123 212 0
1 123 213 0
1 124 -208 0
1 -124 -210 0
1 124 214 0
1 -124 -207 0
1 -124 211 0
1 124 -123 0
1 209 -128 0
1 209 129 0
1 -209 124 0
1 209 116 0
1 -209 -132 0
1 209 -123 0
1 209 -206 0
1 211 -128 0
1 211 129 0
1 -211 -124 0
1 -211 -209 0
1 -211 116 0
1 211 215 0
1 -208 124 0
1 -208 116 0
1 208 -207 0
1 -208 -123 0
1 -208 -206 0
1 -207 -208 0
1 -207 -124 0
1 -207 116 0
1 -207 216 0
1 207 206 0
1 -130 209 0
1 130 -210 0
1 -130 214 0
1 -130 -65 0
1 130 211 0
1 130 -213 0
1 -129 67 0
1 -129 209 0
1 129 -210 0
1 -129 214 0
1 129 -211 0
1 -129 130 0
1 129 212 0
1 -129 -213 0
1 -132 217 0
1 132 -218 0
1 -132 119 0
1 -132 128 0
1 132 210 0
1 -132 214 0
1 132 117 0
1 -132 -64 0
1 132 211 0
1 -128 -217 0
1 -128 -119 0
1 128 69 0
1 -128 -209 0
1 -128 214 0
1 -128 -219 0
1 128 117 0
1 -128 -132 0
1 128 -211 0
1 128 -212 0
1 -128 -213 0
1 214 140 0
1 214 125 0
1 -214 128 0
1 -214 129 0
1 214 142 0
1 -214 132 0
1 214 130 0
1 214 123 0
1 -214 -213 0
1 213 -220 0
1 -213 125 0
1 213 128 0
1 -213 -129 0
1 -213 -124 0
1 213 -214 0
1 213 -126 0
1 -213 123 0
1 -210 220 0
1 -210 -212 0
1 -210 -221 0
1 210 -222 0
1 210 -132 0
1 -210 123 0
1 -212 128 0
1 -212 210 0
1 -212 222 0
1 212 130 0
1 212 -223 0
1 -126 218 0
1 126 125 0
1 126 119 0
1 126 120 0
1 -126 219 0
1 126 -224 0
1 -126 62 0
1 126 -117 0
1 -126 -133 0
1 -126 -213 0
1 -125 -217 0
1 125 115 0
1 -125 120 0
1 125 -219 0
1 -125 -224 0
1 -125 117 0
1 -125 118 0
1 125 -213 0
1 142 -217 0
1 142 218 0
1 -142 -140 0
1 142 -131 0
1 -142 120 0
1 142 -214 0
1 -142 219 0
1 142 77 0
1 -142 -225 0
1 142 -133 0
1 142 -213 0
1 140 -217 0
1 140 -76 0
1 140 -218 0
1 -140 -131 0
1 140 127 0
1 -140 -214 0
1 -140 -219 0
1 140 226 0
1 140 133 0
1 224 -137 0
1 -224 -218 0
1 224 -140 0
1 -224 227 0
1 -224 138 0
1 224 142 0
1 224 -228 0
1 -224 -126 0
1 -218 -137 0
1 -218 -229 0
1 218 -128 0
1 -218 227 0
1 -218 -148 0
1 -218 224 0
1 -218 -142 0
1 -218 132 0
1 -219 -217 0
1 219 -220 0
1 -219 -140 0
1 219 -125 0
1 219 -227 0
1 219 126 0
1 219 -132 0
1 -219 230 0
1 217 -231 0
1 -217 -125 0
1 217 -227 0
1 -217 -219 0
1 217 222 0
1 -217 142 0
1 217 132 0
1 -138 -218 0
1 138 -131 0
1 138 -127 0
1 138 -134 0
1 138 74 0
1 -138 -222 0
1 -138 -224 0
1 -138 225 0
1 -138 122 0
1 138 136 0
1 137 -72 0
1 137 131 0
1 -137 127 0
1 -137 -120 0
1 137 -134 0
1 137 -138 0
1 -137 -224 0
1 -137 225 0
1 -137 133 0
1 137 -136 0
1 148 -218 0
1 -148 139 0
1 148 -224 0
1 -148 226 0
1 -148 -232 0
1 -148 149 0
1 -149 231 0
1 -149 218 0
1 -149 127 0
1 149 -233 0
1 149 134 0
1 -149 -148 0
1 149 224 0
1 -149 226 0
1 -149 225 0
1 149 -141 0
1 149 -232 0
1 225 -137 0
1 -225 234 0
1 -225 -148 0
1 225 142 0
1 -225 -157 0
1 -225 149 0
1 127 140 0
1 -127 115 0
1 -127 235 0
1 127 161 0
1 -127 146 0
1 127 -138 0
1 -127 -142 0
1 127 -225 0
1 127 236 0
1 226 137 0
1 -226 -140 0
1 226 -237 0
1 -226 227 0
1 -226 -148 0
1 -226 -142 0
1 -226 117 0
1 226 -236 0
1 226 238 0
1 131 140 0
1 -131 -119 0
1 131 -239 0
1 -131 -234 0
1 131 227 0
1 131 -148 0
1 131 -142 0
1 -131 -226 0
1 -131 238 0
1 131 230 0
1 131 -149 0
1 146 143 0
1 -146 63 0
1 -146 -127 0
1 146 233 0
1 146 139 0
1 146 84 0
1 -146 134 0
1 146 227 0
1 146 135 0
1 -146 -145 0
1 146 232 0
1 146 -136 0
1 -147 233 0
1 147 139 0
1 147 -134 0
1 -147 -146 0
1 -147 -135 0
1 -147 -225 0
1 147 82 0
1 -147 -232 0
1 161 -240 0
1 -161 63 0
1 161 127 0
1 161 233 0
1 -161 -94 0
1 -161 139 0
1 161 237 0
1 -161 150 0
1 161 241 0
1 -161 -232 0
1 -157 -240 0
1 -157 233 0
1 -157 161 0
1 157 -150 0
1 157 -241 0
1 157 145 0
1 -157 -95 0
1 -157 -238 0
1 -157 -242 0
1 -232 165 0
1 232 153 0
1 232 -139 0
1 232 -146 0
1 232 -148 0
1 -232 -170 0
1 -232 -154 0
1 232 243 0
1 -232 149 0
1 139 -244 0
1 139 -153 0
1 139 245 0
1 -139 -146 0
1 139 -170 0
1 -139 154 0
1 -139 232 0
1 -139 147 0
1 -139 -149 0
1 141 -246 0
1 141 -233 0
1 141 234 0
1 -141 -161 0
1 -141 -133 0
1 -141 -148 0
1 -141 -147 0
1 141 149 0
1 -233 -244 0
1 233 246 0
1 233 120 0
1 -233 -234 0
1 -233 -161 0
1 -233 247 0
1 -233 157 0
1 233 147 0
1 233 -149 0
1 -153 240 0
1 -153 144 0
1 153 75 0
1 -153 89 0
1 -153 234 0
1 153 -139 0
1 -153 -152 0
1 -153 78 0
1 -153 154 0
1 -153 232 0
1 154 63 0
1 -154 75 0
1 -154 -153 0
1 154 150 0
1 154 145 0
1 -154 -78 0
1 -154 232 0
1 -154 242 0
1 165 -248 0
1 165 -75 0
1 165 104 0
1 165 246 0
1 -165 139 0
1 -165 -155 0
1 165 -78 0
1 165 -170 0
1 170 -75 0
1 -170 139 0
1 170 241 0
1 170 155 0
1 170 78 0
1 170 -232 0
1 170 242 0
1 240 143 0
1 -240 249 0
1 -240 163 0
1 240 165 0
1 -240 -153 0
1 -240 241 0
1 -240 250 0
1 240 -175 0
1 240 167 0
1 -240 170 0
1 240 -154 0
1 -240 -157 0
1 -241 -240 0
1 -241 249 0
1 -241 -251 0
1 241 163 0
1 241 -153 0
1 -241 161 0
1 -241 250 0
1 -241 175 0
1 -241 154 0
1 -242 -252 0
1 -242 253 0
1 -242 244 0
1 -242 161 0
1 242 150 0
1 -242 250 0
1 -242 254 0
1 242 170 0
1 242 -154 0
1 -242 157 0
1 242 136 0
1 150 253 0
1 150 244 0
1 -150 153 0
1 150 -134 0
1 150 -255 0
1 150 -256 0
1 150 -170 0
1 -150 154 0
1 -150 -157 0
1 150 -242 0
1 -163 103 0
1 163 -156 0
1 -163 -244 0
1 163 -248 0
1 163 241 0
1 163 -167 0
1 -163 -78 0
1 163 -159 0
1 -163 -160 0
1 -167 -163 0
1 -167 -75 0
1 -167 -151 0
1 -167 99 0
1 -167 -158 0
1 -167 155 0
1 -167 159 0
1 167 -160 0
1 251 240 0
1 251 253 0
1 251 156 0
1 251 -248 0
1 -251 -85 0
1 251 241 0
1 -251 -175 0
1 -251 -158 0
1 -251 -155 0
1 -251 -160 0
1 175 -248 0
1 175 85 0
1 -175 241 0
1 175 114 0
1 175 -155 0
1 175 -166 0
1 -248 -171 0
1 -248 163 0
1 248 144 0
1 248 257 0
1 -248 -258 0
1 -248 183 0
1 248 175 0
1 -155 -163 0
1 -155 -248 0
1 -155 183 0
1 -155 175 0
1 155 -167 0
1 155 -259 0
1 -155 -170 0
1 155 188 0
1 -156 260 0
1 156 249 0
1 156 63 0
1 -156 -163 0
1 -156 -165 0
1 156 -258 0
1 156 261 0
1 156 250 0
1 156 -158 0
1 -156 -167 0
1 156 -170 0
1 158 -251 0
1 -158 156 0
1 158 -163 0
1 -158 258 0
1 -158 -261 0
1 158 -145 0
1 -158 -262 0
1 158 -170 0
1 171 -107 0
1 -171 -249 0
1 171 -248 0
1 -171 263 0
1 -171 85 0
1 171 172 0
1 171 -155 0
1 -171 -166 0
1 -171 -160 0
1 -171 -162 0
1 -171 -169 0
1 -172 248 0
1 172 264 0
1 -172 108 0
1 172 168 0
1 172 -250 0
1 172 -155 0
1 172 166 0
1 172 -164 0
1 172 -162 0
1 -172 -169 0
1 188 260 0
1 188 -248 0
1 -188 -264 0
1 -188 174 0
1 -188 183 0
1 188 -155 0
1 188 164 0
1 -188 176 0
1 -188 173 0
1 -183 -248 0
1 183 263 0
1 -183 174 0
1 -183 -179 0
1 -183 -168 0
1 -183 -166 0
1 183 176 0
1 263 171 0
1 263 265 0
1 -263 151 0
1 263 -194 0
1 263 183 0
1 263 -172 0
1 263 196 0
1 -263 182 0
1 263 188 0
1 164 -171 0
1 -164 265 0
1 -164 194 0
1 164 178 0
1 -164 172 0
1 -164 -196 0
1 164 182 0
1 164 -188 0
1 -264 -171 0
1 264 251 0
1 -264 75 0
1 -264 265 0
1 264 -266 0
1 -264 -267 0
1 -264 172 0
1 264 -166 0
1 264 268 0
1 264 -269 0
1 -166 -171 0
1 166 251 0
1 -166 267 0
1 166 258 0
1 -166 -183 0
1 -166 175 0
1 -166 270 0
1 166 269 0
1 166 188 0
1 182 -177 0
1 182 263 0
1 182 -178 0
1 -182 174 0
1 182 -271 0
1 -182 168 0
1 -182 90 0
1 -182 -187 0
1 182 -164 0
1 182 -176 0
1 182 -173 0
1 182 -169 0
1 -178 -258 0
1 -178 -271 0
1 178 -187 0
1 -178 -173 0
1 178 164 0
1 178 -182 0
1 -178 -169 0
1 -196 272 0
1 -196 -106 0
1 196 194 0
1 -196 -263 0
1 -196 -174 0
1 -196 184 0
1 -196 -180 0
1 196 187 0
1 -196 191 0
1 196 269 0
1 -194 185 0
1 194 106 0
1 -194 189 0
1 -194 267 0
1 -194 174 0
1 194 -176 0
1 194 -184 0
1 -194 180 0
1 -194 -164 0
1 -194 196 0
1 -271 -201 0
1 271 -193 0
1 271 -194 0
1 -271 -81 0
1 -271 273 0
1 271 -274 0
1 -271 203 0
1 -271 173 0
1 271 -190 0
1 271 196 0
1 -271 182 0
1 -173 -275 0
1 173 -201 0
1 173 274 0
1 173 203 0
1 -173 -182 0
1 173 276 0
1 174 -275 0
1 -174 -194 0
1 174 -85 0
1 174 178 0
1 -174 277 0
1 -174 -176 0
1 174 -274 0
1 174 278 0
1 174 -268 0
1 174 -196 0
1 -174 -182 0
1 174 188 0
1 -176 275 0
1 176 265 0
1 176 194 0
1 176 178 0
1 -176 174 0
1 176 -183 0
1 176 -278 0
1 176 -268 0
1 -176 -196 0
1 176 279 0
1 -176 188 0
1 -190 185 0
1 -190 272 0
1 -190 106 0
1 -190 101 0
1 190 -193 0
1 -190 -180 0
1 190 187 0
1 190 186 0
1 190 112 0
1 190 -173 0
1 193 272 0
1 -193 -113 0
1 -193 265 0
1 -193 271 0
1 193 184 0
1 193 187 0
1 193 186 0
1 -193 -112 0
1 203 185 0
1 -203 -201 0
1 -203 -280 0
1 -203 113 0
1 -203 -184 0
1 -203 180 0
1 -203 -195 0
1 203 -281 0
1 203 112 0
1 -203 -173 0
1 201 185 0
1 -201 272 0
1 201 -282 0
1 201 -280 0
1 201 271 0
1 201 195 0
1 201 281 0
1 -180 -283 0
1 -180 -284 0
1 180 -272 0
1 -180 -201 0
1 -180 285 0
1 -180 -90 0
1 180 -202 0
1 -180 203 0
1 180 -196 0
1 -272 283 0
1 272 284 0
1 272 -177 0
1 272 -201 0
1 272 -194 0
1 272 -285 0
1 -272 -180 0
1 -272 203 0
1 272 190 0
1 -184 185 0
1 -184 -201 0
1 184 193 0
1 184 -194 0
1 184 -168 0
1 184 286 0
1 184 -274 0
1 185 283 0
1 185 -287 0
1 -185 275 0
1 -185 -193 0
1 -185 -194 0
1 185 -285 0
1 185 184 0
1 185 -286 0
1 -185 -274 0
1 -185 190 0
1 185 196 0
1 -202 272 0
1 -202 199 0
1 -202 -280 0
1 -202 -113 0
1 202 -281 0
1 -199 275 0
1 199 -280 0
1 199 113 0
1 199 -195 0
1 288 -272 0
1 -288 -197 0
1 -288 280 0
1 288 205 0
1 -288 286 0
1 -288 180 0
1 288 281 0
1 284 288 0
1 284 281 0
1 284 -204 0
1 -281 199 0
1 281 -289 0
1 281 290 0
1 -281 288 0
1 -281 202 0
1 -281 -203 0
1 -281 -291 0
1 -280 284 0
1 -280 199 0
1 280 101 0
1 280 -202 0
1 280 -203 0
1 280 -291 0
1 280 292 0
1 -195 283 0
1 -195 -199 0
1 195 201 0
1 -195 -293 0
1 195 285 0
1 197 199 0
1 197 106 0
1 -197 201 0
1 197 293 0
1 197 -285 0
1 -197 195 0
1 -197 203 0
1 197 -294 0
1 -290 -280 0
1 290 285 0
1 -290 281 0
1 -290 -204 0
1 -290 295 0
1 -292 -200 0
1 292 281 0
1 292 -295 0
1 289 280 0
1 -289 -200 0
1 289 293 0
1 -289 281 0
1 289 -204 0
1 291 -205 0
1 -291 -200 0
1 -291 -204 0
1 291 -295 0
1 -291 -294 0
1 -200 284 0
1 200 -110 0
1 200 -290 0
1 -200 295 0
1 200 291 0
1 -200 -292 0
1 204 290 0
1 -204 292 0
1 -205 -113 0
1 205 -289 0
1 -205 -290 0
1 -205 288 0
1 205 292 0
1 222 -217 0
1 -222 296 0
1 -222 -214 0
1 -222 -219 0
1 -222 -216 0
1 222 -215 0
1 -222 -212 0
1 222 -213 0
1 220 137 0
1 -220 217 0
1 -220 210 0
1 -220 -222 0
1 220 216 0
1 -297 -231 0
1 297 -298 0
1 297 -299 0
1 -297 -221 0
1 -297 148 0
1 297 216 0
1 -297 223 0
1 231 -298 0
1 -231 296 0
1 231 221 0
1 -231 -297 0
1 231 300 0
1 -231 -216 0
1 231 223 0
1 231 149 0
1 -299 231 0
1 299 220 0
1 299 237 0
1 -299 209 0
1 -299 -227 0
1 299 -297 0
1 299 -222 0
1 299 -238 0
1 299 230 0
1 -215 231 0
1 -215 220 0
1 215 -237 0
1 215 -222 0
1 -215 -211 0
1 215 238 0
1 -215 -301 0
1 215 -230 0
1 296 -231 0
1 296 -220 0
1 296 -208 0
1 296 302 0
1 296 222 0
1 -296 -216 0
1 216 220 0
1 216 -296 0
1 -216 303 0
1 -216 -222 0
1 216 -207 0
1 227 298 0
1 227 -217 0
1 -227 218 0
1 227 -131 0
1 -227 -299 0
1 -227 -146 0
1 227 -221 0
1 -227 300 0
1 227 219 0
1 -227 -224 0
1 -230 -298 0
1 230 217 0
1 -230 299 0
1 -230 -221 0
1 -230 226 0
1 -230 223 0
1 -237 229 0
1 -237 161 0
1 237 -299 0
1 237 221 0
1 -237 300 0
1 237 -226 0
1 -238 -298 0
1 -238 -237 0
1 238 -299 0
1 -238 -300 0
1 238 -228 0
1 -238 223 0
1 300 -246 0
1 -300 237 0
1 -300 304 0
1 -300 247 0
1 298 246 0
1 298 -234 0
1 -298 -237 0
1 -298 227 0
1 -298 -300 0
1 -298 -247 0
1 298 -236 0
1 298 213 0
1 -221 305 0
1 -221 -223 0
1 221 210 0
1 -221 -227 0
1 -221 -297 0
1 221 -304 0
1 -221 -230 0
1 -223 -231 0
1 223 -305 0
1 223 237 0
1 223 -221 0
1 223 297 0
1 -223 304 0
1 223 238 0
1 -223 230 0
1 234 -306 0
1 -234 131 0
1 -234 127 0
1 234 153 0
1 234 -307 0
1 234 -228 0
1 -234 -226 0
1 -234 -225 0
1 -234 236 0
1 236 306 0
1 -236 229 0
1 236 131 0
1 236 233 0
1 236 225 0
1 236 300 0
1 236 -141 0
1 -236 307 0
1 -236 -228 0
1 -236 -226 0
1 -236 -154 0
1 246 298 0
1 -246 239 0
1 -246 -235 0
1 -246 -233 0
1 -246 300 0
1 -246 307 0
1 246 228 0
1 246 -247 0
1 246 308 0
1 247 298 0
1 -247 306 0
1 247 239 0
1 -247 -246 0
1 -247 300 0
1 -247 307 0
1 -247 -228 0
1 228 309 0
1 228 -229 0
1 228 246 0
1 228 237 0
1 -228 310 0
1 228 -254 0
1 -228 -311 0
1 228 236 0
1 228 238 0
1 -229 309 0
1 229 -253 0
1 229 -218 0
1 229 244 0
1 -229 -312 0
1 229 -246 0
1 -229 -237 0
1 229 254 0
1 -229 -236 0
1 307 -309 0
1 -307 313 0
1 307 305 0
1 -307 246 0
1 307 -234 0
1 -307 237 0
1 307 310 0
1 -307 -219 0
1 -307 247 0
1 -307 236 0
1 -307 -238 0
1 306 -313 0
1 -306 -246 0
1 -306 237 0
1 -306 307 0
1 306 -314 0
1 306 -304 0
1 306 247 0
1 -306 238 0
1 244 -229 0
1 244 163 0
1 244 239 0
1 244 -235 0
1 244 233 0
1 -244 -139 0
1 -244 256 0
1 -244 -228 0
1 -244 -141 0
1 -256 -229 0
1 -256 -244 0
1 256 239 0
1 -256 -235 0
1 -256 -139 0
1 256 -150 0
1 -256 -167 0
1 256 315 0
1 256 308 0
1 -256 -141 0
1 253 251 0
1 253 229 0
1 -253 239 0
1 -253 235 0
1 253 316 0
1 253 245 0
1 -253 -150 0
1 -253 -254 0
1 -253 -228 0
1 253 315 0
1 -253 -308 0
1 253 317 0
1 253 -243 0
1 -253 -242 0
1 -254 229 0
1 -254 235 0
1 -254 316 0
1 254 245 0
1 -254 150 0
1 -254 228 0
1 -254 -315 0
1 -254 308 0
1 254 -317 0
1 -254 -243 0
1 -254 242 0
1 -308 -249 0
1 -308 -318 0
1 308 -261 0
1 308 250 0
1 308 -254 0
1 -308 -225 0
1 -235 -253 0
1 -235 246 0
1 -235 318 0
1 -235 250 0
1 235 -256 0
1 235 -308 0
1 235 -319 0
1 -315 253 0
1 -315 -244 0
1 315 239 0
1 -315 318 0
1 -315 320 0
1 315 -310 0
1 315 321 0
1 -315 -319 0
1 239 -322 0
1 239 309 0
1 239 244 0
1 -239 -315 0
1 -239 131 0
1 239 -320 0
1 239 310 0
1 239 254 0
1 239 256 0
1 -239 319 0
1 -249 171 0
1 249 -309 0
1 249 235 0
1 -249 -316 0
1 -249 -245 0
1 249 -241 0
1 249 250 0
1 249 -317 0
1 -249 243 0
1 249 -242 0
1 -250 249 0
1 -250 -156 0
1 -250 -172 0
1 -250 -241 0
1 -250 -310 0
1 250 308 0
1 250 -243 0
1 260 322 0
1 -260 323 0
1 -260 -156 0
1 -260 -235 0
1 -260 -255 0
1 260 324 0
1 260 308 0
1 -260 317 0
1 260 243 0
1 261 260 0
1 261 156 0
1 261 -316 0
1 261 183 0
1 261 320 0
1 261 -158 0
1 -261 317 0
1 261 243 0
1 243 -249 0
1 243 253 0
1 243 -325 0
1 -243 -258 0
1 -243 245 0
1 -243 254 0
1 243 326 0
1 243 -269 0
1 -243 -232 0
1 245 249 0
1 -245 -267 0
1 -245 139 0
1 -245 -261 0
1 -245 -254 0
1 -245 326 0
1 245 -269 0
1 317 249 0
1 317 -253 0
1 -317 325 0
1 -317 316 0
1 317 327 0
1 317 -318 0
1 317 261 0
1 -317 254 0
1 -317 -326 0
1 -317 -141 0
1 317 328 0
1 316 -260 0
1 316 253 0
1 -316 233 0
1 316 261 0
1 -316 -254 0
1 -316 317 0
1 258 252 0
1 258 248 0
1 -258 -178 0
1 258 158 0
1 -258 -166 0
1 -269 323 0
1 269 329 0
1 -269 -264 0
1 -269 267 0
1 -269 255 0
1 269 -324 0
1 269 262 0
1 -269 259 0
1 -269 -166 0
1 269 196 0
1 267 -252 0
1 -267 323 0
1 267 -257 0
1 267 -264 0
1 -267 -194 0
1 -267 -327 0
1 -267 -259 0
1 -267 166 0
1 267 -269 0
1 -267 -243 0
1 -323 240 0
1 323 330 0
1 323 -331 0
1 323 267 0
1 323 -258 0
1 323 -261 0
1 323 324 0
1 323 278 0
1 323 268 0
1 -323 269 0
1 324 323 0
1 324 331 0
1 324 -282 0
1 324 -265 0
1 -324 -267 0
1 324 258 0
1 -324 -241 0
1 -324 -332 0
1 -324 -333 0
1 324 -268 0
1 -324 -269 0
1 252 331 0
1 252 267 0
1 -252 258 0
1 -252 255 0
1 252 -333 0
1 252 326 0
1 252 269 0
1 -252 242 0
1 -255 -252 0
1 255 334 0
1 -255 325 0
1 -255 -267 0
1 255 258 0
1 255 150 0
1 -255 -326 0
1 -255 269 0
1 -268 -323 0
1 -268 329 0
1 268 265 0
1 -268 264 0
1 268 174 0
1 -268 324 0
1 268 -262 0
1 -268 166 0
1 -268 -326 0
1 -265 323 0
1 265 164 0
1 -265 329 0
1 -265 264 0
1 265 174 0
1 265 262 0
1 265 -259 0
1 265 -268 0
1 -278 329 0
1 -278 -266 0
1 278 174 0
1 -278 203 0
1 -278 -259 0
1 -278 335 0
1 -278 -176 0
1 278 270 0
1 -282 -323 0
1 -282 -201 0
1 282 -329 0
1 282 266 0
1 -282 336 0
1 -282 262 0
1 282 259 0
1 282 -270 0
1 -282 -337 0
1 257 -287 0
1 257 -275 0
1 257 282 0
1 257 -267 0
1 -257 -278 0
1 -259 -287 0
1 -259 -275 0
1 259 -282 0
1 259 -257 0
1 259 -267 0
1 259 338 0
1 329 -339 0
1 -329 340 0
1 -329 -156 0
1 329 282 0
1 329 267 0
1 329 338 0
1 329 -262 0
1 -262 -340 0
1 -262 -331 0
1 -262 -282 0
1 -262 267 0
1 262 -158 0
1 262 -341 0
1 -262 278 0
1 -262 -268 0
1 262 -269 0
1 -274 -185 0
1 274 -275 0
1 -274 266 0
1 274 336 0
1 274 271 0
1 274 184 0
1 274 202 0
1 274 -259 0
1 274 -337 0
1 -274 176 0
1 -274 173 0
1 275 -185 0
1 275 -336 0
1 275 271 0
1 275 -184 0
1 275 -274 0
1 275 259 0
1 -275 270 0
1 275 -176 0
1 -275 173 0
1 286 -185 0
1 -286 -257 0
1 -286 266 0
1 -286 -336 0
1 286 -277 0
1 286 -184 0
1 286 -288 0
1 286 -341 0
1 -286 259 0
1 -286 270 0
1 -287 -185 0
1 -287 284 0
1 287 -257 0
1 287 -277 0
1 -287 273 0
1 -287 184 0
1 -287 -259 0
1 287 -270 0
1 287 337 0
1 -287 -279 0
1 -287 -276 0
1 -336 283 0
1 336 -287 0
1 -336 263 0
1 -336 286 0
1 -336 -274 0
1 -336 -278 0
1 336 -337 0
1 -337 283 0
1 337 -287 0
1 -337 -275 0
1 -337 285 0
1 -337 274 0
1 -266 339 0
1 266 275 0
1 -266 282 0
1 266 -342 0
1 -266 286 0
1 266 -274 0
1 -266 278 0
1 -266 343 0
1 -270 339 0
1 -270 282 0
1 -270 -266 0
1 -270 -338 0
1 -270 -274 0
1 270 278 0
1 -270 166 0
1 -270 -343 0
1 -285 -283 0
1 285 -185 0
1 -285 272 0
1 285 273 0
1 -285 -290 0
1 285 -184 0
1 285 180 0
1 -285 195 0
1 285 -337 0
1 -285 279 0
1 285 -276 0
1 283 185 0
1 283 -272 0
1 -283 197 0
1 283 -277 0
1 283 285 0
1 283 180 0
1 -283 -337 0
1 283 276 0
1 293 -337 0
1 -293 -277 0
1 -293 289 0
1 293 -273 0
1 -293 342 0
1 293 195 0
1 294 -197 0
1 -294 -277 0
1 -294 195 0
1 294 -291 0
1 -273 -283 0
1 273 -293 0
1 -273 -276 0
1 273 294 0
1 276 283 0
1 -276 -287 0
1 276 293 0
1 276 -273 0
1 -276 285 0
1 -276 294 0
1 -277 -174 0
1 277 293 0
1 277 -285 0
1 279 -287 0
1 279 277 0
1 279 -285 0
1 -279 286 0
1 279 294 0
1 -305 306 0
1 305 -302 0
1 -305 344 0
1 -305 -221 0
1 -305 300 0
1 -305 -307 0
1 305 -304 0
1 305 -303 0
1 305 223 0
1 304 298 0
1 304 -306 0
1 304 305 0
1 304 -302 0
1 304 -221 0
1 304 307 0
1 -304 223 0
1 313 302 0
1 313 345 0
1 313 346 0
1 313 307 0
1 313 314 0
1 -313 303 0
1 -313 -301 0
1 314 -347 0
1 314 306 0
1 -314 344 0
1 -314 -307 0
1 314 -303 0
1 -314 348 0
1 -344 -322 0
1 -344 299 0
1 344 349 0
1 -301 -322 0
1 -301 -309 0
1 301 -313 0
1 301 -305 0
1 301 -344 0
1 301 -320 0
1 -301 -310 0
1 301 -314 0
1 -301 304 0
1 -301 350 0
1 -302 305 0
1 302 304 0
1 -302 303 0
1 303 -313 0
1 303 305 0
1 303 302 0
1 -303 -216 0
1 -303 351 0
1 309 -347 0
1 -309 249 0
1 309 306 0
1 309 229 0
1 309 344 0
1 309 345 0
1 309 310 0
1 -309 307 0
1 -309 346 0
1 309 315 0
1 309 348 0
1 310 -306 0
1 310 -309 0
1 -310 345 0
1 -310 -346 0
1 -310 307 0
1 -310 228 0
1 -310 -315 0
1 310 348 0
1 -322 -260 0
1 -322 -347 0
1 -322 344 0
1 -322 -346 0
1 -322 352 0
1 322 301 0
1 -322 -348 0
1 -320 -322 0
1 320 353 0
1 320 -239 0
1 -320 -344 0
1 -320 346 0
1 -320 -352 0
1 320 -301 0
1 -320 348 0
1 -346 -347 0
1 -346 -354 0
1 346 -327 0
1 346 318 0
1 -346 -320 0
1 346 300 0
1 -346 -310 0
1 -346 -355 0
1 346 314 0
1 -346 328 0
1 347 298 0
1 347 -322 0
1 -347 356 0
1 347 309 0
1 -347 -313 0
1 347 354 0
1 347 327 0
1 347 -318 0
1 347 320 0
1 347 346 0
1 347 -314 0
1 347 -319 0
1 345 -322 0
1 345 -309 0
1 345 -313 0
1 345 320 0
1 -345 221 0
1 -345 314 0
1 -345 -357 0
1 -345 -348 0
1 348 358 0
1 348 -313 0
1 348 223 0
1 348 345 0
1 348 -314 0
1 348 -357 0
1 319 -347 0
1 -319 -312 0
1 319 -235 0
1 -319 316 0
1 -319 346 0
1 -319 -311 0
1 319 317 0
1 318 -347 0
1 318 -353 0
1 318 -316 0
1 318 -258 0
1 -318 -346 0
1 318 -352 0
1 -318 -311 0
1 318 -315 0
1 -318 -308 0
1 -318 317 0
1 318 -319 0
1 -328 -312 0
1 328 -359 0
1 -328 -316 0
1 328 327 0
1 328 346 0
1 -328 352 0
1 -328 321 0
1 -328 -360 0
1 328 269 0
1 -327 347 0
1 327 353 0
1 327 361 0
1 327 -316 0
1 -327 346 0
1 -327 311 0
1 327 321 0
1 -327 -360 0
1 -311 -322 0
1 311 -362 0
1 311 312 0
1 311 -327 0
1 311 363 0
1 311 -319 0
1 312 322 0
1 -312 -364 0
1 312 -327 0
1 312 -318 0
1 -312 -363 0
1 -312 335 0
1 -312 326 0
1 312 328 0
1 352 353 0
1 352 364 0
1 -352 354 0
1 352 -327 0
1 352 357 0
1 352 -319 0
1 353 322 0
1 -353 306 0
1 353 -364 0
1 353 365 0
1 353 354 0
1 353 327 0
1 -353 -320 0
1 -353 -352 0
1 353 -366 0
1 -353 357 0
1 -353 328 0
1 326 359 0
1 326 325 0
1 -326 -316 0
1 326 245 0
1 -326 -255 0
1 326 -360 0
1 326 357 0
1 -326 317 0
1 -325 252 0
1 325 312 0
1 325 -265 0
1 325 359 0
1 -325 354 0
1 -325 -316 0
1 325 -361 0
1 -325 255 0
1 -325 -311 0
1 325 321 0
1 -325 326 0
1 325 -317 0
1 -335 252 0
1 -335 312 0
1 -335 334 0
1 -335 359 0
1 -335 361 0
1 -335 367 0
1 -335 368 0
1 335 -255 0
1 335 -311 0
1 335 -369 0
1 335 -370 0
1 334 -282 0
1 -334 365 0
1 334 255 0
1 334 -335 0
1 -334 360 0
1 334 -370 0
1 -360 -371 0
1 -360 340 0
1 360 -331 0
1 360 334 0
1 360 361 0
1 -360 327 0
1 -360 333 0
1 361 340 0
1 361 331 0
1 -361 -334 0
1 361 235 0
1 -361 372 0
1 361 333 0
1 361 335 0
1 361 326 0
1 361 -328 0
1 321 373 0
1 -321 -334 0
1 -321 315 0
1 -321 -325 0
1 321 359 0
1 321 374 0
1 -321 -363 0
1 -321 -335 0
1 -321 -328 0
1 -359 371 0
1 -359 -373 0
1 -359 334 0
1 -359 239 0
1 -359 325 0
1 -359 327 0
1 -359 372 0
1 359 374 0
1 -359 363 0
1 -359 -335 0
1 359 -321 0
1 -359 326 0
1 -359 -328 0
1 333 252 0
1 333 323 0
1 -333 331 0
1 -333 -361 0
1 -333 255 0
1 -333 324 0
1 333 -262 0
1 333 274 0
1 333 363 0
1 333 370 0
1 -331 -252 0
1 -331 275 0
1 331 329 0
1 331 361 0
1 331 324 0
1 331 -333 0
1 -341 -375 0
1 341 340 0
1 341 -330 0
1 -341 329 0
1 -341 361 0
1 -341 -367 0
1 -341 -374 0
1 341 370 0
1 -340 -287 0
1 340 -373 0
1 340 -361 0
1 340 -367 0
1 -340 376 0
1 -340 -332 0
1 -340 262 0
1 340 -341 0
1 370 340 0
1 -370 331 0
1 370 368 0
1 370 338 0
1 370 -341 0
1 -370 -343 0
1 368 -339 0
1 -368 340 0
1 -368 -331 0
1 368 -370 0
1 -368 334 0
1 368 -245 0
1 -368 342 0
1 -368 -338 0
1 368 341 0
1 368 333 0
1 -368 343 0
1 369 -377 0
1 -369 -371 0
1 -369 -340 0
1 369 331 0
1 369 -367 0
1 -369 -378 0
1 -369 -372 0
1 -369 341 0
1 -369 -333 0
1 -367 -377 0
1 367 340 0
1 367 331 0
1 -367 334 0
1 -367 -316 0
1 -367 378 0
1 367 -372 0
1 -367 -341 0
1 367 333 0
1 -367 335 0
1 -338 375 0
1 338 330 0
1 -338 257 0
1 -338 -266 0
1 338 -368 0
1 -338 -285 0
1 -338 -332 0
1 338 -259 0
1 -338 -270 0
1 339 283 0
1 339 -375 0
1 -339 371 0
1 339 257 0
1 339 -368 0
1 339 376 0
1 339 338 0
1 339 -262 0
1 -339 259 0
1 339 270 0
1 339 370 0
1 342 375 0
1 -342 330 0
1 -342 370 0
1 342 266 0
1 -342 -368 0
1 -342 -293 0
1 -342 376 0
1 342 -378 0
1 342 343 0
1 -343 332 0
1 -343 -294 0
1 343 -370 0
1 -330 339 0
1 -330 -323 0
1 -330 -340 0
1 -330 342 0
1 330 -338 0
1 -330 -341 0
1 332 -340 0
1 -332 342 0
1 332 -324 0
1 332 -343 0
1 -375 339 0
1 375 -342 0
1 375 -338 0
1 375 -341 0
1 376 -339 0
1 -376 -342 0
1 376 338 0
1 -376 343 0
1 357 347 0
1 -357 353 0
1 357 -354 0
1 -357 -352 0
1 -357 -326 0
1 -357 -350 0
1 -354 -353 0
1 -354 325 0
1 354 -379 0
1 -354 349 0
1 354 -345 0
1 354 357 0
1 -366 -358 0
1 -366 356 0
1 -366 -379 0
1 366 349 0
1 -366 -380 0
1 -366 355 0
1 366 -352 0
1 366 -335 0
1 366 351 0
1 -366 -350 0
1 365 -356 0
1 -365 379 0
1 -365 355 0
1 -365 -351 0
1 365 -350 0
1 349 -373 0
1 -349 364 0
1 349 350 0
1 349 -354 0
1 349 -344 0
1 -349 374 0
1 349 -363 0
1 -349 366 0
1 -350 -373 0
1 350 -364 0
1 -350 -365 0
1 -350 354 0
1 350 374 0
1 350 363 0
1 350 -366 0
1 350 357 0
1 350 -301 0
1 -379 -365 0
1 -379 -351 0
1 351 -354 0
1 351 379 0
1 -351 -366 0
1 -351 -357 0
1 363 358 0
1 363 -356 0
1 -363 364 0
1 363 -380 0
1 363 355 0
1 -363 352 0
1 -363 333 0
1 363 -311 0
1 -363 350 0
1 364 -356 0
1 364 -353 0
1 364 -331 0
1 364 -359 0
1 364 -349 0
1 -364 -380 0
1 364 355 0
1 364 -311 0
1 374 356 0
1 -374 381 0
1 -374 -349 0
1 -374 -380 0
1 -374 382 0
1 -373 356 0
1 373 340 0
1 373 -359 0
1 373 380 0
1 373 -355 0
1 373 382 0
1 355 371 0
1 -355 -356 0
1 -355 -365 0
1 -355 -378 0
1 -355 346 0
1 355 -372 0
1 -355 363 0
1 -356 -347 0
1 -356 371 0
1 -356 -373 0
1 -356 -364 0
1 356 365 0
1 356 374 0
1 356 -366 0
1 380 -364 0
1 -380 -365 0
1 -380 345 0
1 -380 374 0
1 -380 -363 0
1 380 366 0
1 358 -364 0
1 358 -374 0
1 358 -363 0
1 372 -371 0
1 -372 -356 0
1 -372 381 0
1 372 383 0
1 372 -359 0
1 -372 361 0
1 372 367 0
1 -372 321 0
1 371 339 0
1 371 356 0
1 371 -381 0
1 -371 383 0
1 -371 -359 0
1 371 361 0
1 371 -367 0
1 371 -372 0
1 -371 355 0
1 371 -382 0
1 371 362 0
1 378 -356 0
1 -378 381 0
1 378 -367 0
1 -378 382 0
1 -378 -362 0
1 -377 -356 0
1 377 383 0
1 -377 367 0
1 377 -378 0
1 377 -355 0
1 -377 362 0
1 -362 377 0
1 -362 371 0
1 362 -373 0
1 -362 -383 0
1 -362 -372 0
1 383 -377 0
1 -383 371 0
1 -383 378 0
1 383 372 0
1 383 362 0
1 382 -377 0
1 382 373 0
1 382 378 0
1 -382 -372 0
1 -382 352 0
1 -382 374 0
1 -381 353 0
1 381 373 0
1 -381 378 0
1 -381 -372 0
1 381 -382 0
